networks/zoo_138_2817/zoo_138_2817-lower.txt
Number of groups: 69
Flow 1: {1 2 0} {2 71 0} 
Flow 2: {1 4 0} {4 3 0} {3 72 0} 
Flow 3: {4 73 0} 
Flow 4: {4 6 0} {6 5 0} {5 74 0} 
Flow 5: {6 75 0} 
Flow 6: {2 7 0} {7 76 0} 
Flow 7: {7 52 0} {52 8 0} {8 77 0} 
Flow 8: {2 63 0} {63 9 0} {9 78 0} 
Flow 9: {9 10 0} {10 79 0} 
Flow 10: {6 11 0} {11 80 0} 
Flow 11: {11 12 0} {12 81 0} 
Flow 12: {2 33 0} {33 13 0} {13 82 0} 
Flow 13: {13 14 0} {14 83 0} 
Flow 14: {57 31 0} {31 15 0} {15 84 0} 
Flow 14: {63 44 0} {44 57 0} Flow 15: {13 16 0} {16 85 0} 
Flow 16: {4 23 0} {23 17 0} {17 86 0} 
Flow 17: {17 18 0} {18 87 0} 
Flow 18: {1 24 0} {24 19 0} {19 88 0} 
Flow 19: {19 20 0} {20 89 0} 
Flow 20: {19 21 0} {21 90 0} 
Flow 21: {23 22 0} {22 91 0} 
Flow 22: {23 92 0} 
Flow 23: {24 93 0} 
Flow 24: {23 25 0} {25 94 0} 
Flow 25: {25 26 0} {26 95 0} 
Flow 26: {4 62 0} {62 27 0} {27 96 0} 
Flow 27: {62 28 0} {28 97 0} 
Flow 28: {33 29 0} {29 98 0} 
Flow 29: {13 30 0} {30 99 0} 
Flow 30: {31 100 0} 
Flow 31: {16 43 0} {43 45 0} {45 32 0} {32 101 0} 
Flow 32: {33 102 0} 
Flow 33: {14 41 0} {41 34 0} {34 103 0} 
Flow 34: {63 35 0} {35 104 0} 
Flow 35: {35 36 0} {36 105 0} 
Flow 36: {9 37 0} {37 106 0} 
Flow 37: {9 38 0} {38 107 0} 
Flow 38: {26 39 0} {39 108 0} 
Flow 39: {17 40 0} {40 109 0} 
Flow 40: {41 110 0} 
Flow 41: {64 42 0} {42 111 0} 
Flow 41: {63 64 0} Flow 42: {43 112 0} 
Flow 43: {44 113 0} 
Flow 44: {45 114 0} 
Flow 45: {4 46 0} {46 115 0} 
Flow 46: {4 47 0} {47 116 0} 
Flow 47: {47 48 0} {48 117 0} 
Flow 48: {2 49 0} {49 118 0} 
Flow 49: {1 50 0} {50 119 0} 
Flow 50: {50 51 0} {51 120 0} 
Flow 51: {52 121 0} 
Flow 52: {1 55 0} {55 53 0} {53 122 0} 
Flow 53: {55 124 0} 
Flow 54: {55 56 0} {56 125 0} 
Flow 55: {57 126 0} 
Flow 56: {1 69 0} {69 68 0} {68 67 0} {67 58 0} {58 127 0} 
Flow 57: {2 59 0} {59 128 0} 
Flow 58: {68 60 0} {60 129 0} 
Flow 59: {3 61 0} {61 130 0} 
Flow 60: {62 131 0} 
Flow 61: {63 132 0} 
Flow 62: {64 133 0} 
Flow 63: {64 65 0} {65 134 0} 
Flow 64: {9 66 0} {66 135 0} 
Flow 65: {67 136 0} 
Flow 66: {68 137 0} 
Flow 67: {69 138 0} 
Flow 68: {2 1 0} {1 70 0} 
Flow 69: {2 4 0} Flow 117: {49 51 0} Flow 123: {65 58 0} Flow 135: {3 4 0} {4 1 0} Flow 136: {4 2 0} Flow 140: {27 10 0} Flow 141: {62 13 0} Flow 146: {47 19 0} Flow 156: {28 36 0} Flow 157: {28 37 0} Flow 166: {61 60 0} Flow 170: {62 64 0} Flow 171: {60 68 0} Flow 179: {5 8 0} Flow 225: {55 54 0} {54 123 0} 
Flow 241: {5 6 0} {6 4 0} Flow 302: {11 51 0} Flow 303: {6 55 0} Flow 319: {7 2 0} Flow 323: {8 5 0} Flow 324: {8 52 0} {52 7 0} Flow 371: {9 63 0} {63 2 0} Flow 382: {9 30 0} {30 13 0} Flow 383: {30 14 0} Flow 386: {63 62 0} {62 17 0} Flow 389: {22 21 0} {62 23 0} Flow 394: {18 26 0} Flow 395: {10 27 0} Flow 396: {37 28 0} Flow 397: {13 33 0} Flow 433: {58 67 0} Flow 436: {10 9 0} Flow 438: {27 62 0} {62 4 0} Flow 449: {23 24 0} Flow 474: {12 11 0} {11 6 0} Flow 484: {51 49 0} Flow 487: {33 2 0} Flow 489: {13 62 0} Flow 495: {30 9 0} Flow 500: {14 44 0} Flow 519: {62 63 0} Flow 553: {14 13 0} Flow 561: {14 30 0} Flow 577: {30 27 0} Flow 585: {44 63 0} Flow 618: {15 31 0} {31 57 0} {57 44 0} Flow 622: {44 14 0} Flow 623: {57 43 0} {43 16 0} Flow 628: {16 13 0} Flow 659: {16 44 0} Flow 677: {43 57 0} Flow 689: {17 62 0} Flow 706: {17 23 0} Flow 728: {40 42 0} Flow 754: {18 17 0} Flow 777: {19 24 0} {24 1 0} Flow 778: {19 47 0} {47 4 0} Flow 787: {24 23 0} Flow 822: {20 19 0} Flow 839: {21 19 0} Flow 844: {21 22 0} {22 23 0} {23 62 0} Flow 887: {23 4 0} Flow 1021: {25 23 0} Flow 1032: {26 18 0} Flow 1064: {26 25 0} Flow 1075: {27 30 0} Flow 1095: {28 62 0} Flow 1100: {37 9 0} Flow 1115: {36 35 0} Flow 1133: {29 33 0} Flow 1284: {15 32 0} Flow 1315: {32 15 0} Flow 1317: {32 45 0} {45 43 0} Flow 1430: {34 41 0} {41 14 0} Flow 1438: {35 63 0} Flow 1447: {44 16 0} Flow 1461: {36 28 0} Flow 1556: {38 9 0} Flow 1596: {39 26 0} Flow 1619: {40 17 0} Flow 1650: {42 64 0} {64 62 0} Flow 1651: {64 63 0} Flow 1661: {42 40 0} Flow 1701: {67 68 0} Flow 1836: {46 4 0} Flow 1954: {48 47 0} Flow 1992: {48 54 0} {54 55 0} Flow 2007: {49 2 0} Flow 2017: {51 11 0} Flow 2054: {51 50 0} Flow 2072: {50 1 0} Flow 2182: {53 55 0} {55 1 0} Flow 2194: {54 48 0} Flow 2196: {55 6 0} Flow 2309: {56 55 0} Flow 2391: {68 69 0} {69 1 0} Flow 2392: {58 65 0} {65 64 0} Flow 2418: {60 61 0} Flow 2423: {59 2 0} Flow 2488: {61 3 0} Flow 2688: {66 9 0} Time taken running everything: 1 seconds
