networks/zoo_138_2817/zoo_138_2817-lower.sol
<?xml version = "1.0" encoding="UTF-8" standalone="yes"?>
<CPLEXSolution version="1.2">
 <header
   problemName="networks/zoo_138_2817/zoo_138_2817-lower.lp"
   solutionName="incumbent"
   solutionIndex="-1"
   objectiveValue="69"
   solutionTypeValue="3"
   solutionTypeString="primal"
   solutionStatusValue="101"
   solutionStatusString="integer optimal solution"
   solutionMethodString="mip"
   primalFeasible="1"
   dualFeasible="1"
   MIPNodes="0"
   MIPIterations="0"
   writeLevel="3"/>
 <quality
   epInt="1.0000000000000001e-05"
   epRHS="9.9999999999999995e-07"
   maxIntInfeas="0"
   maxPrimalInfeas="0"
   maxX="1"
   maxSlack="1"/>
 <variables>
  <variable name="Y(1,2)" index="1" value="1"/>
  <variable name="Y(2,3)" index="140" value="1"/>
  <variable name="Y(3,4)" index="279" value="1"/>
  <variable name="Y(4,5)" index="418" value="1"/>
  <variable name="Y(5,6)" index="557" value="1"/>
  <variable name="Y(6,7)" index="696" value="1"/>
  <variable name="Y(7,8)" index="835" value="1"/>
  <variable name="Y(8,9)" index="974" value="1"/>
  <variable name="Y(9,10)" index="1113" value="1"/>
  <variable name="Y(10,11)" index="1252" value="1"/>
  <variable name="Y(11,12)" index="1391" value="1"/>
  <variable name="Y(12,13)" index="1530" value="1"/>
  <variable name="Y(13,14)" index="1669" value="1"/>
  <variable name="Y(14,15)" index="1808" value="1"/>
  <variable name="Y(15,16)" index="1947" value="1"/>
  <variable name="Y(16,17)" index="2086" value="1"/>
  <variable name="Y(17,18)" index="2225" value="1"/>
  <variable name="Y(18,19)" index="2364" value="1"/>
  <variable name="Y(19,20)" index="2503" value="1"/>
  <variable name="Y(20,21)" index="2642" value="1"/>
  <variable name="Y(21,22)" index="2781" value="1"/>
  <variable name="Y(22,23)" index="2920" value="1"/>
  <variable name="Y(23,24)" index="3059" value="1"/>
  <variable name="Y(24,25)" index="3198" value="1"/>
  <variable name="Y(25,26)" index="3337" value="1"/>
  <variable name="Y(26,27)" index="3476" value="1"/>
  <variable name="Y(27,28)" index="3615" value="1"/>
  <variable name="Y(28,29)" index="3754" value="1"/>
  <variable name="Y(29,30)" index="3893" value="1"/>
  <variable name="Y(30,31)" index="4032" value="1"/>
  <variable name="Y(31,32)" index="4171" value="1"/>
  <variable name="Y(32,33)" index="4310" value="1"/>
  <variable name="Y(33,34)" index="4449" value="1"/>
  <variable name="Y(34,35)" index="4588" value="1"/>
  <variable name="Y(35,36)" index="4727" value="1"/>
  <variable name="Y(36,37)" index="4866" value="1"/>
  <variable name="Y(37,38)" index="5005" value="1"/>
  <variable name="Y(38,39)" index="5144" value="1"/>
  <variable name="Y(39,40)" index="5283" value="1"/>
  <variable name="Y(40,41)" index="5422" value="1"/>
  <variable name="Y(41,42)" index="5561" value="1"/>
  <variable name="Y(42,43)" index="5700" value="1"/>
  <variable name="Y(43,44)" index="5839" value="1"/>
  <variable name="Y(44,45)" index="5978" value="1"/>
  <variable name="Y(45,46)" index="6117" value="1"/>
  <variable name="Y(46,47)" index="6256" value="1"/>
  <variable name="Y(47,48)" index="6395" value="1"/>
  <variable name="Y(48,49)" index="6534" value="1"/>
  <variable name="Y(49,50)" index="6673" value="1"/>
  <variable name="Y(50,51)" index="6812" value="1"/>
  <variable name="Y(51,52)" index="6951" value="1"/>
  <variable name="Y(52,53)" index="7090" value="1"/>
  <variable name="Y(53,55)" index="7230" value="1"/>
  <variable name="Y(54,56)" index="7369" value="1"/>
  <variable name="Y(55,57)" index="7508" value="1"/>
  <variable name="Y(56,58)" index="7647" value="1"/>
  <variable name="Y(57,59)" index="7786" value="1"/>
  <variable name="Y(58,60)" index="7925" value="1"/>
  <variable name="Y(59,61)" index="8064" value="1"/>
  <variable name="Y(60,62)" index="8203" value="1"/>
  <variable name="Y(61,63)" index="8342" value="1"/>
  <variable name="Y(62,64)" index="8481" value="1"/>
  <variable name="Y(63,65)" index="8620" value="1"/>
  <variable name="Y(64,66)" index="8759" value="1"/>
  <variable name="Y(65,67)" index="8898" value="1"/>
  <variable name="Y(66,68)" index="9037" value="1"/>
  <variable name="Y(67,69)" index="9176" value="1"/>
  <variable name="Y(68,1)" index="9246" value="1"/>
  <variable name="Y(225,54)" index="30965" value="1"/>
  <variable name="X(1,2,1)" index="388746" value="1"/>
  <variable name="X(1,4,2)" index="391564" value="1"/>
  <variable name="X(1,24,18)" index="394397" value="1"/>
  <variable name="X(1,50,49)" index="397245" value="1"/>
  <variable name="X(1,55,52)" index="400065" value="1"/>
  <variable name="X(1,69,56)" index="402886" value="1"/>
  <variable name="X(1,70,68)" index="405715" value="1"/>
  <variable name="X(2,1,68)" index="408532" value="1"/>
  <variable name="X(2,4,69)" index="411350" value="1"/>
  <variable name="X(2,7,6)" index="414104" value="1"/>
  <variable name="X(2,33,12)" index="416927" value="1"/>
  <variable name="X(2,49,48)" index="419780" value="1"/>
  <variable name="X(2,59,57)" index="422606" value="1"/>
  <variable name="X(2,63,8)" index="425374" value="1"/>
  <variable name="X(2,71,1)" index="428184" value="1"/>
  <variable name="X(3,4,135)" index="431135" value="1"/>
  <variable name="X(3,61,59)" index="433876" value="1"/>
  <variable name="X(3,72,2)" index="436636" value="1"/>
  <variable name="X(4,1,135)" index="439586" value="1"/>
  <variable name="X(4,2,136)" index="442404" value="1"/>
  <variable name="X(4,3,2)" index="445087" value="1"/>
  <variable name="X(4,6,4)" index="447906" value="1"/>
  <variable name="X(4,23,16)" index="450735" value="1"/>
  <variable name="X(4,46,45)" index="453581" value="1"/>
  <variable name="X(4,47,46)" index="456399" value="1"/>
  <variable name="X(4,62,26)" index="459196" value="1"/>
  <variable name="X(4,73,3)" index="461990" value="1"/>
  <variable name="X(5,6,241)" index="465045" value="1"/>
  <variable name="X(5,8,179)" index="467800" value="1"/>
  <variable name="X(5,74,4)" index="470442" value="1"/>
  <variable name="X(6,4,241)" index="473496" value="1"/>
  <variable name="X(6,5,4)" index="476076" value="1"/>
  <variable name="X(6,11,10)" index="478899" value="1"/>
  <variable name="X(6,55,303)" index="482009" value="1"/>
  <variable name="X(6,75,5)" index="484528" value="1"/>
  <variable name="X(7,2,319)" index="487659" value="1"/>
  <variable name="X(7,52,7)" index="490164" value="1"/>
  <variable name="X(7,76,6)" index="492980" value="1"/>
  <variable name="X(8,5,323)" index="496114" value="1"/>
  <variable name="X(8,52,324)" index="498932" value="1"/>
  <variable name="X(8,77,7)" index="501432" value="1"/>
  <variable name="X(9,10,9)" index="504251" value="1"/>
  <variable name="X(9,30,382)" index="507441" value="1"/>
  <variable name="X(9,37,36)" index="509912" value="1"/>
  <variable name="X(9,38,37)" index="512730" value="1"/>
  <variable name="X(9,63,371)" index="515881" value="1"/>
  <variable name="X(9,66,64)" index="518391" value="1"/>
  <variable name="X(9,78,8)" index="521152" value="1"/>
  <variable name="X(10,9,436)" index="524397" value="1"/>
  <variable name="X(10,27,395)" index="527173" value="1"/>
  <variable name="X(10,79,9)" index="529604" value="1"/>
  <variable name="X(11,6,474)" index="532886" value="1"/>
  <variable name="X(11,12,11)" index="535240" value="1"/>
  <variable name="X(11,51,302)" index="538348" value="1"/>
  <variable name="X(11,80,10)" index="540873" value="1"/>
  <variable name="X(12,11,474)" index="544154" value="1"/>
  <variable name="X(12,81,11)" index="546508" value="1"/>
  <variable name="X(13,14,13)" index="549327" value="1"/>
  <variable name="X(13,16,15)" index="552146" value="1"/>
  <variable name="X(13,30,29)" index="554977" value="1"/>
  <variable name="X(13,33,397)" index="558162" value="1"/>
  <variable name="X(13,62,489)" index="561071" value="1"/>
  <variable name="X(13,82,12)" index="563411" value="1"/>
  <variable name="X(14,13,553)" index="566769" value="1"/>
  <variable name="X(14,30,561)" index="569594" value="1"/>
  <variable name="X(14,41,33)" index="571883" value="1"/>
  <variable name="X(14,44,500)" index="575167" value="1"/>
  <variable name="X(14,83,13)" index="577497" value="1"/>
  <variable name="X(15,31,618)" index="580919" value="1"/>
  <variable name="X(15,32,1284)" index="584402" value="1"/>
  <variable name="X(15,84,14)" index="585949" value="1"/>
  <variable name="X(16,13,628)" index="589380" value="1"/>
  <variable name="X(16,43,31)" index="591600" value="1"/>
  <variable name="X(16,44,659)" index="595045" value="1"/>
  <variable name="X(16,85,15)" index="597218" value="1"/>
  <variable name="X(17,18,17)" index="600037" value="1"/>
  <variable name="X(17,23,706)" index="603543" value="1"/>
  <variable name="X(17,40,39)" index="605693" value="1"/>
  <variable name="X(17,62,689)" index="609160" value="1"/>
  <variable name="X(17,86,16)" index="611304" value="1"/>
  <variable name="X(18,17,754)" index="614859" value="1"/>
  <variable name="X(18,26,394)" index="617316" value="1"/>
  <variable name="X(18,87,17)" index="619756" value="1"/>
  <variable name="X(19,20,19)" index="622575" value="1"/>
  <variable name="X(19,21,20)" index="625393" value="1"/>
  <variable name="X(19,24,777)" index="628967" value="1"/>
  <variable name="X(19,47,778)" index="631785" value="1"/>
  <variable name="X(19,88,18)" index="633842" value="1"/>
  <variable name="X(20,19,822)" index="637463" value="1"/>
  <variable name="X(20,89,19)" index="639477" value="1"/>
  <variable name="X(21,19,839)" index="643114" value="1"/>
  <variable name="X(21,22,844)" index="645936" value="1"/>
  <variable name="X(21,90,20)" index="647929" value="1"/>
  <variable name="X(22,21,389)" index="651115" value="1"/>
  <variable name="X(22,23,844)" index="654387" value="1"/>
  <variable name="X(22,91,21)" index="656381" value="1"/>
  <variable name="X(23,4,887)" index="660064" value="1"/>
  <variable name="X(23,17,16)" index="662010" value="1"/>
  <variable name="X(23,22,21)" index="664832" value="1"/>
  <variable name="X(23,24,449)" index="668077" value="1"/>
  <variable name="X(23,25,24)" index="670469" value="1"/>
  <variable name="X(23,62,844)" index="674106" value="1"/>
  <variable name="X(23,92,22)" index="676101" value="1"/>
  <variable name="X(24,1,777)" index="679673" value="1"/>
  <variable name="X(24,19,18)" index="681731" value="1"/>
  <variable name="X(24,23,787)" index="685317" value="1"/>
  <variable name="X(24,93,23)" index="687370" value="1"/>
  <variable name="X(25,23,1021)" index="691185" value="1"/>
  <variable name="X(25,26,25)" index="693006" value="1"/>
  <variable name="X(25,94,24)" index="695822" value="1"/>
  <variable name="X(26,18,1032)" index="699647" value="1"/>
  <variable name="X(26,25,1064)" index="702496" value="1"/>
  <variable name="X(26,39,38)" index="704287" value="1"/>
  <variable name="X(26,95,25)" index="707091" value="1"/>
  <variable name="X(27,10,140)" index="710023" value="1"/>
  <variable name="X(27,30,1075)" index="713775" value="1"/>
  <variable name="X(27,62,438)" index="715955" value="1"/>
  <variable name="X(27,96,26)" index="718360" value="1"/>
  <variable name="X(28,36,156)" index="721307" value="1"/>
  <variable name="X(28,37,157)" index="724125" value="1"/>
  <variable name="X(28,62,1095)" index="727880" value="1"/>
  <variable name="X(28,97,27)" index="729629" value="1"/>
  <variable name="X(29,33,1133)" index="733552" value="1"/>
  <variable name="X(29,98,28)" index="735264" value="1"/>
  <variable name="X(30,9,495)" index="738548" value="1"/>
  <variable name="X(30,13,382)" index="741252" value="1"/>
  <variable name="X(30,14,383)" index="744070" value="1"/>
  <variable name="X(30,27,577)" index="747081" value="1"/>
  <variable name="X(30,99,29)" index="749350" value="1"/>
  <variable name="X(31,15,14)" index="752152" value="1"/>
  <variable name="X(31,57,618)" index="755573" value="1"/>
  <variable name="X(31,100,30)" index="757802" value="1"/>
  <variable name="X(32,15,1315)" index="761904" value="1"/>
  <variable name="X(32,45,1317)" index="764723" value="1"/>
  <variable name="X(32,101,31)" index="766254" value="1"/>
  <variable name="X(33,2,487)" index="769527" value="1"/>
  <variable name="X(33,13,12)" index="771869" value="1"/>
  <variable name="X(33,29,28)" index="774702" value="1"/>
  <variable name="X(33,102,32)" index="777523" value="1"/>
  <variable name="X(34,41,1430)" index="781738" value="1"/>
  <variable name="X(34,103,33)" index="783158" value="1"/>
  <variable name="X(35,36,35)" index="785977" value="1"/>
  <variable name="X(35,63,1438)" index="790197" value="1"/>
  <variable name="X(35,104,34)" index="791610" value="1"/>
  <variable name="X(36,28,1461)" index="795854" value="1"/>
  <variable name="X(36,35,1115)" index="798325" value="1"/>
  <variable name="X(36,105,35)" index="800062" value="1"/>
  <variable name="X(37,9,1100)" index="803944" value="1"/>
  <variable name="X(37,28,396)" index="806057" value="1"/>
  <variable name="X(37,106,36)" index="808514" value="1"/>
  <variable name="X(38,9,1556)" index="812851" value="1"/>
  <variable name="X(38,107,37)" index="814149" value="1"/>
  <variable name="X(39,26,1596)" index="818525" value="1"/>
  <variable name="X(39,108,38)" index="819784" value="1"/>
  <variable name="X(40,17,1619)" index="824182" value="1"/>
  <variable name="X(40,42,728)" index="826108" value="1"/>
  <variable name="X(40,109,39)" index="828236" value="1"/>
  <variable name="X(41,14,1430)" index="832444" value="1"/>
  <variable name="X(41,34,33)" index="833864" value="1"/>
  <variable name="X(41,110,40)" index="836688" value="1"/>
  <variable name="X(42,40,1661)" index="841126" value="1"/>
  <variable name="X(42,64,1650)" index="843932" value="1"/>
  <variable name="X(42,111,41)" index="845140" value="1"/>
  <variable name="X(43,16,623)" index="848539" value="1"/>
  <variable name="X(43,45,31)" index="850764" value="1"/>
  <variable name="X(43,57,677)" index="854227" value="1"/>
  <variable name="X(43,112,42)" index="856409" value="1"/>
  <variable name="X(44,14,622)" index="859806" value="1"/>
  <variable name="X(44,16,1447)" index="863448" value="1"/>
  <variable name="X(44,57,14)" index="864832" value="1"/>
  <variable name="X(44,63,585)" index="868220" value="1"/>
  <variable name="X(44,113,43)" index="870495" value="1"/>
  <variable name="X(45,32,31)" index="873300" value="1"/>
  <variable name="X(45,43,1317)" index="877403" value="1"/>
  <variable name="X(45,114,44)" index="878947" value="1"/>
  <variable name="X(46,4,1836)" index="883556" value="1"/>
  <variable name="X(46,115,45)" index="884582" value="1"/>
  <variable name="X(47,4,778)" index="888132" value="1"/>
  <variable name="X(47,19,146)" index="890317" value="1"/>
  <variable name="X(47,48,47)" index="893035" value="1"/>
  <variable name="X(47,116,46)" index="895851" value="1"/>
  <variable name="X(48,47,1954)" index="900576" value="1"/>
  <variable name="X(48,54,1992)" index="903431" value="1"/>
  <variable name="X(48,117,47)" index="904303" value="1"/>
  <variable name="X(49,2,2007)" index="909080" value="1"/>
  <variable name="X(49,51,117)" index="910007" value="1"/>
  <variable name="X(49,118,48)" index="912755" value="1"/>
  <variable name="X(50,1,2072)" index="917596" value="1"/>
  <variable name="X(50,51,50)" index="918391" value="1"/>
  <variable name="X(50,119,49)" index="921207" value="1"/>
  <variable name="X(51,11,2017)" index="925992" value="1"/>
  <variable name="X(51,49,484)" index="927276" value="1"/>
  <variable name="X(51,50,2054)" index="931663" value="1"/>
  <variable name="X(51,120,50)" index="932476" value="1"/>
  <variable name="X(52,7,324)" index="935567" value="1"/>
  <variable name="X(52,8,7)" index="938067" value="1"/>
  <variable name="X(52,121,51)" index="940928" value="1"/>
  <variable name="X(53,55,2182)" index="945876" value="1"/>
  <variable name="X(53,122,52)" index="946563" value="1"/>
  <variable name="X(54,48,2194)" index="951522" value="1"/>
  <variable name="X(54,55,1992)" index="954137" value="1"/>
  <variable name="X(54,123,225)" index="955187" value="1"/>
  <variable name="X(55,1,2182)" index="959961" value="1"/>
  <variable name="X(55,6,2196)" index="962792" value="1"/>
  <variable name="X(55,53,52)" index="963465" value="1"/>
  <variable name="X(55,54,225)" index="966455" value="1"/>
  <variable name="X(55,56,54)" index="969101" value="1"/>
  <variable name="X(55,124,53)" index="971917" value="1"/>
  <variable name="X(56,55,2309)" index="976990" value="1"/>
  <variable name="X(56,125,54)" index="977552" value="1"/>
  <variable name="X(57,31,14)" index="980329" value="1"/>
  <variable name="X(57,43,623)" index="983755" value="1"/>
  <variable name="X(57,44,618)" index="986567" value="1"/>
  <variable name="X(57,126,55)" index="988821" value="1"/>
  <variable name="X(58,65,2392)" index="993975" value="1"/>
  <variable name="X(58,67,433)" index="994833" value="1"/>
  <variable name="X(58,127,56)" index="997273" value="1"/>
  <variable name="X(59,2,2423)" index="1002457" value="1"/>
  <variable name="X(59,128,57)" index="1002908" value="1"/>
  <variable name="X(60,61,2418)" index="1008086" value="1"/>
  <variable name="X(60,68,171)" index="1008656" value="1"/>
  <variable name="X(60,129,58)" index="1011360" value="1"/>
  <variable name="X(61,3,2488)" index="1016607" value="1"/>
  <variable name="X(61,60,166)" index="1017102" value="1"/>
  <variable name="X(61,130,59)" index="1019812" value="1"/>
  <variable name="X(62,4,438)" index="1023008" value="1"/>
  <variable name="X(62,13,141)" index="1025528" value="1"/>
  <variable name="X(62,17,386)" index="1028590" value="1"/>
  <variable name="X(62,23,389)" index="1031410" value="1"/>
  <variable name="X(62,27,26)" index="1033864" value="1"/>
  <variable name="X(62,28,27)" index="1036682" value="1"/>
  <variable name="X(62,63,519)" index="1039991" value="1"/>
  <variable name="X(62,64,170)" index="1042459" value="1"/>
  <variable name="X(62,131,60)" index="1045166" value="1"/>
  <variable name="X(63,2,371)" index="1048294" value="1"/>
  <variable name="X(63,9,8)" index="1050748" value="1"/>
  <variable name="X(63,35,34)" index="1053591" value="1"/>
  <variable name="X(63,44,14)" index="1056388" value="1"/>
  <variable name="X(63,62,386)" index="1059577" value="1"/>
  <variable name="X(63,64,41)" index="1062049" value="1"/>
  <variable name="X(63,132,61)" index="1064886" value="1"/>
  <variable name="X(64,42,41)" index="1067683" value="1"/>
  <variable name="X(64,62,1650)" index="1072109" value="1"/>
  <variable name="X(64,63,1651)" index="1074927" value="1"/>
  <variable name="X(64,65,63)" index="1076156" value="1"/>
  <variable name="X(64,133,62)" index="1078972" value="1"/>
  <variable name="X(65,58,123)" index="1081850" value="1"/>
  <variable name="X(65,64,2392)" index="1086936" value="1"/>
  <variable name="X(65,134,63)" index="1087424" value="1"/>
  <variable name="X(66,9,2688)" index="1092866" value="1"/>
  <variable name="X(66,135,64)" index="1093059" value="1"/>
  <variable name="X(67,58,56)" index="1095868" value="1"/>
  <variable name="X(67,68,1701)" index="1100330" value="1"/>
  <variable name="X(67,136,65)" index="1101511" value="1"/>
  <variable name="X(68,60,58)" index="1104321" value="1"/>
  <variable name="X(68,67,56)" index="1107136" value="1"/>
  <variable name="X(68,69,2391)" index="1112288" value="1"/>
  <variable name="X(68,137,66)" index="1112780" value="1"/>
  <variable name="X(69,1,2391)" index="1117922" value="1"/>
  <variable name="X(69,68,56)" index="1118404" value="1"/>
  <variable name="X(69,138,67)" index="1121232" value="1"/>
 </variables>
</CPLEXSolution>
